321 5
10 10 10 10 10 

0 0 0 0 0 0 3 2 34 66 
0 0 0 0 0 0 2 3 32 
9 0 1 0 1 1 1 4 
6 0 6 0 3 5 1 5 
6 0 3 0 7 6 1 6 
1 0 7 0 6 8 1 7 
8 0 7 0 6 7 3 31 30 8 
4 0 9 0 5 4 2 29 9 
3 0 7 0 5 5 4 28 27 26 10 
8 0 7 0 2 7 1 11 
5 0 5 0 8 4 1 12 
8 0 5 0 6 4 1 13 
3 0 5 0 7 1 1 14 
4 0 3 0 7 5 2 25 15 
10 0 1 0 3 2 1 16 
8 0 3 0 4 6 1 17 
7 0 6 0 3 4 1 18 
9 0 3 0 6 8 1 19 
10 0 3 0 5 3 1 20 
5 0 4 0 6 4 1 21 
5 0 6 0 6 10 1 22 
6 0 4 0 4 8 1 23 
5 0 7 0 3 4 1 24 
6 0 7 0 3 2 1 33 
6 0 7 0 4 3 1 33 
7 0 4 0 7 9 1 33 
4 0 5 0 3 6 1 33 
4 0 5 0 8 7 1 33 
4 0 5 0 4 6 1 33 
9 0 5 0 5 2 1 33 
4 0 4 0 9 5 2 33 306 
8 0 6 0 4 4 1 33 
0 0 0 0 0 0 1 160 
0 0 0 0 0 0 4 35 62 63 64 
10 1 0 0 1 1 2 61 36 
1 6 0 0 3 7 1 37 
1 8 0 0 5 2 2 60 38 
4 7 0 0 4 4 2 59 39 
1 4 0 0 6 4 2 58 40 
10 7 0 0 6 5 1 41 
7 6 0 0 3 3 1 42 
10 2 0 0 3 5 1 43 
1 5 0 0 5 3 1 44 
6 5 0 0 5 4 1 45 
4 7 0 0 5 8 1 46 
10 4 0 0 3 2 2 57 47 
1 5 0 0 4 8 1 48 
10 8 0 0 6 7 1 49 
9 5 0 0 2 5 1 50 
8 2 0 0 7 10 1 51 
10 6 0 0 6 2 2 52 155 
1 3 0 0 7 4 1 53 
1 4 0 0 3 6 1 54 
2 3 0 0 4 6 1 55 
3 2 0 0 8 4 1 56 
6 8 0 0 7 7 1 65 
3 9 0 0 8 8 1 65 
6 3 0 0 4 7 1 65 
9 2 0 0 7 3 1 65 
8 6 0 0 8 6 1 65 
1 6 0 0 7 2 1 65 
7 7 0 0 7 3 1 65 
4 5 0 0 2 6 1 65 
7 4 0 0 4 8 1 65 
0 0 0 0 0 0 1 160 
0 0 0 0 0 0 1 67 
2 2 0 0 0 0 2 69 68 
10 5 0 0 0 0 1 70 
3 6 0 0 0 0 1 70 
2 10 0 0 0 0 2 73 71 
8 3 0 0 0 0 2 76 72 
2 2 0 0 0 0 2 74 90 
3 6 0 0 0 0 1 74 
4 6 0 0 0 0 1 75 
6 4 0 0 0 0 1 77 
9 6 0 0 0 0 1 77 
0 0 0 0 0 0 2 78 100 
0 0 0 0 0 0 2 79 81 
1 0 0 1 0 1 2 80 129 
1 0 0 3 0 7 2 85 82 
8 0 0 3 0 3 2 85 82 
3 0 0 9 0 4 2 87 83 
6 0 0 4 0 6 1 84 
7 0 0 10 0 1 2 90 86 
5 0 0 1 0 9 2 87 86 
5 0 0 6 0 4 1 88 
4 0 0 1 0 5 1 88 
7 0 0 8 0 5 1 89 
3 0 0 5 0 4 1 91 
1 0 0 5 0 3 1 91 
8 0 0 4 0 6 1 92 
1 0 0 4 0 10 1 93 
8 0 0 5 0 3 1 94 
10 0 0 5 0 5 2 97 95 
8 0 0 6 0 5 1 96 
6 0 0 7 0 7 1 98 
8 0 0 7 0 7 1 98 
9 0 0 6 0 5 1 99 
0 0 0 0 0 0 1 160 
0 0 0 0 0 0 3 101 107 109 
10 1 0 0 0 0 2 102 282 
3 4 0 0 0 0 2 105 103 
5 3 0 0 0 0 1 104 
1 5 0 0 0 0 1 106 
3 8 0 0 0 0 1 106 
2 4 0 0 0 0 1 108 
5 7 0 0 0 0 1 108 
1 7 0 0 0 0 1 110 
8 5 0 0 0 0 1 110 
6 6 0 0 0 0 1 111 
0 0 0 0 0 0 4 112 124 136 148 
0 0 0 0 0 0 2 113 117 
10 0 4 0 0 0 2 116 114 
2 0 4 0 0 0 1 115 
1 0 4 0 0 0 1 118 
4 0 4 0 0 0 1 118 
7 0 5 0 0 0 1 118 
8 0 5 0 0 0 2 120 119 
2 0 5 0 0 0 1 121 
7 0 10 0 0 0 1 121 
10 0 6 0 0 0 2 122 311 
4 0 3 0 0 0 1 123 
0 0 0 0 0 0 1 160 
0 0 0 0 0 0 3 125 133 134 
3 0 0 1 0 0 1 126 
4 0 0 3 0 0 2 132 127 
3 0 0 5 0 0 1 128 
2 0 0 6 0 0 1 129 
1 0 0 9 0 0 1 130 
3 0 0 5 0 0 2 131 228 
8 0 0 6 0 0 1 135 
10 0 0 6 0 0 1 135 
9 0 0 4 0 0 1 135 
1 0 0 5 0 0 1 135 
0 0 0 0 0 0 1 160 
0 0 0 0 0 0 2 137 143 
5 0 1 0 0 0 1 138 
6 0 3 0 0 0 3 146 139 168 
4 0 7 0 0 0 1 140 
8 0 10 0 0 0 2 145 141 
6 0 5 0 0 0 1 142 
8 0 7 0 0 0 1 144 
3 0 2 0 0 0 1 146 
7 0 4 0 0 0 1 147 
6 0 4 0 0 0 1 147 
6 0 7 0 0 0 1 147 
0 0 0 0 0 0 1 160 
0 0 0 0 0 0 1 149 
9 0 2 0 0 0 2 155 150 
5 0 2 0 0 0 2 151 264 
2 0 3 0 0 0 1 152 
5 0 4 0 0 0 3 158 157 153 
10 0 10 0 0 0 1 154 
5 0 5 0 0 0 1 156 
2 0 6 0 0 0 1 156 
5 0 4 0 0 0 1 159 
2 0 5 0 0 0 1 159 
6 0 9 0 0 0 1 159 
0 0 0 0 0 0 1 160 
0 0 0 0 0 0 5 161 173 195 217 239 
0 0 0 0 0 0 2 162 163 
7 0 0 0 0 1 2 167 164 
2 0 0 0 0 6 2 167 164 
2 0 0 0 0 8 1 165 
1 0 0 0 0 5 1 166 
1 0 0 0 0 3 2 168 315 
8 0 0 0 0 5 1 168 
5 0 0 0 0 7 2 171 169 
3 0 0 0 0 5 1 170 
10 0 0 0 0 7 1 172 
7 0 0 0 0 3 1 172 
0 0 0 0 0 0 5 261 273 285 297 309 
0 0 0 0 0 0 2 174 176 
10 2 0 1 0 0 2 179 175 
7 3 0 7 0 0 1 177 
10 3 0 5 0 0 1 177 
10 4 0 9 0 0 2 178 295 
4 8 0 4 0 0 1 180 
7 5 0 6 0 0 1 180 
8 5 0 8 0 0 1 181 
6 10 0 6 0 0 2 184 182 
2 4 0 2 0 0 1 183 
3 3 0 3 0 0 2 190 185 
2 7 0 7 0 0 2 190 185 
7 4 0 4 0 0 1 186 
8 4 0 3 0 0 2 193 187 
4 4 0 6 0 0 1 188 
9 10 0 5 0 0 1 189 
7 4 0 2 0 0 1 191 
5 4 0 6 0 0 1 191 
1 6 0 2 0 0 1 192 
6 5 0 5 0 0 1 194 
5 5 0 9 0 0 1 194 
0 0 0 0 0 0 1 321 
0 0 0 0 0 0 3 196 207 215 
9 0 2 1 0 0 1 197 
8 0 3 7 0 0 2 205 198 
1 0 9 6 0 0 2 214 199 
10 0 6 3 0 0 1 200 
8 0 4 6 0 0 1 201 
5 0 7 6 0 0 2 213 202 
10 0 5 6 0 0 2 203 286 
2 0 4 3 0 0 1 204 
3 0 4 6 0 0 1 206 
10 0 3 6 0 0 1 206 
7 0 5 7 0 0 1 208 
10 0 1 3 0 0 1 208 
5 0 4 3 0 0 1 209 
9 0 8 6 0 0 1 210 
3 0 4 7 0 0 1 211 
1 0 5 9 0 0 1 212 
9 0 9 3 0 0 1 216 
4 0 3 4 0 0 1 216 
7 0 4 4 0 0 1 216 
1 0 10 4 0 0 1 216 
0 0 0 0 0 0 1 321 
0 0 0 0 0 0 3 218 228 237 
8 0 1 1 0 0 1 219 
5 0 4 3 0 0 1 220 
5 0 6 2 0 0 2 235 221 
9 0 1 6 0 0 1 222 
9 0 4 9 0 0 1 223 
1 0 5 4 0 0 1 224 
5 0 7 4 0 0 2 234 225 
3 0 8 4 0 0 1 226 
2 0 2 3 0 0 1 227 
1 0 4 9 0 0 1 229 
8 0 5 2 0 0 2 236 231 
5 0 8 3 0 0 1 230 
3 0 3 7 0 0 1 231 
10 0 6 7 0 0 1 232 
9 0 3 2 0 0 1 233 
8 0 8 5 0 0 2 238 259 
3 0 7 6 0 0 1 238 
3 0 7 8 0 0 1 238 
9 0 3 10 0 0 1 238 
10 0 8 5 0 0 1 238 
0 0 0 0 0 0 1 321 
0 0 0 0 0 0 2 240 245 
9 0 0 0 1 1 2 259 241 
3 0 0 0 8 7 2 258 242 
10 0 0 0 8 3 2 247 243 
2 0 0 0 2 7 1 244 
8 0 0 0 8 4 1 246 
3 0 0 0 2 7 1 247 
3 0 0 0 5 2 1 248 
8 0 0 0 5 7 1 248 
6 0 0 0 5 7 1 249 
8 0 0 0 10 4 1 250 
1 0 0 0 6 5 1 251 
2 0 0 0 2 3 2 257 252 
4 0 0 0 10 6 1 253 
10 0 0 0 4 5 1 254 
2 0 0 0 5 6 1 255 
5 0 0 0 3 3 1 256 
2 0 0 0 5 7 1 260 
6 0 0 0 1 6 1 260 
8 0 0 0 6 3 1 260 
4 0 0 0 4 7 1 260 
0 0 0 0 0 0 1 321 
0 0 0 0 0 0 2 262 266 
10 0 0 0 1 0 1 263 
9 0 0 0 5 0 1 264 
7 0 0 0 8 0 1 265 
7 0 0 0 7 0 3 271 270 267 
3 0 0 0 5 0 2 270 268 
10 0 0 0 6 0 1 268 
4 0 0 0 5 0 1 269 
2 0 0 0 5 0 1 272 
1 0 0 0 1 0 1 272 
10 0 0 0 7 0 1 272 
0 0 0 0 0 0 1 321 
0 0 0 0 0 0 2 274 277 
8 0 0 0 0 1 1 275 
7 0 0 0 0 5 2 283 276 
6 0 0 0 0 4 1 278 
4 0 0 0 0 7 1 278 
6 0 0 0 0 4 2 281 279 
5 0 0 0 0 6 1 280 
8 0 0 0 0 6 1 282 
8 0 0 0 0 6 1 282 
2 0 0 0 0 6 1 284 
6 0 0 0 0 5 1 284 
0 0 0 0 0 0 1 321 
0 0 0 0 0 0 2 286 288 
4 1 0 0 0 0 2 291 287 
7 7 0 0 0 0 1 289 
10 5 0 0 0 0 2 294 291 
8 3 0 0 0 0 1 290 
1 6 0 0 0 0 2 294 292 
7 4 0 0 0 0 1 292 
6 8 0 0 0 0 1 293 
2 5 0 0 0 0 1 295 
1 5 0 0 0 0 1 295 
9 6 0 0 0 0 1 296 
0 0 0 0 0 0 1 321 
0 0 0 0 0 0 2 298 300 
6 0 0 0 1 0 1 299 
8 0 0 0 4 0 2 306 302 
6 0 0 0 3 0 2 303 301 
2 0 0 0 7 0 2 306 304 
3 0 0 0 7 0 1 303 
7 0 0 0 4 0 1 304 
10 0 0 0 8 0 1 305 
4 0 0 0 4 0 1 307 
5 0 0 0 7 0 1 307 
2 0 0 0 5 0 1 308 
0 0 0 0 0 0 1 321 
0 0 0 0 0 0 2 310 313 
10 0 0 0 0 1 1 311 
1 0 0 0 0 3 1 312 
4 0 0 0 0 6 1 314 
4 0 0 0 0 6 3 319 318 316 
10 0 0 0 0 4 2 318 315 
6 0 0 0 0 2 1 316 
10 0 0 0 0 8 1 317 
7 0 0 0 0 6 1 320 
5 0 0 0 0 6 1 320 
3 0 0 0 0 8 1 320 
0 0 0 0 0 0 1 321 
0 0 0 0 0 0 0 
